dates = {'2022-03-08','2022-03-09','2022-03-10','2022-03-11','2022-03-12','2022-03-13','2022-03-14'};

daysOfWeek = [Tuesday,Wednesday,Thursday,Friday,Saturday,Sunday,Monday];

% For this week, how many people will be here.
numPeople = [122,121,109,109,109,109,98];

% Physical workers need 50 to 100 % more nutrients per day.
numPhysicalWorkers = [32.0,32.0,31.0,28.0,28.0,28.0,28.0];

% Males need +25% more nutrients per day.
numMen = [100,100,99,90,90,90,90];

% Num people who do not eat categories. contains = {none, meat, milk, gluten, egg, nut, seed, sugars}
numRefusals = [| 0,0,0,4,0,0,1,0 | 0,8,3,3,4,2,1,0 | 0,1,3,4,0,9,0,1 | 0,1,3,4,0,9,0,1 | 0,1,3,4,0,9,0,1 | 0,1,3,4,0,9,0,1 | 0,2,0,0,0,0,0,0 |];

